p cnf 14 22
-14 13 -11 0
-14 13 -10 0
-14 -12 -11 0
-14 -12 10 0
14 9 6 0
-14 -5 -4 0
14 5 3 0
13 -12 -10 0
-13 12 2 0
13 -5 -3 0
13 -5 -1 0
12 -11 -6 0
-12 10 -9 0
-12 -7 -3 0
-11 -10 1 0
11 -9 4 0
11 8 -7 0
-10 -9 7 0
10 8 7 0
10 7 4 0
9 -5 3 0
6 -5 -2 0
